proyfinal/src/viki/013/experimentInOfficeAgust.take6.output/4cd78711-5d7b-475f-bd33-05f3e8d2c6aa.als.out
Reading from standard input... Use '--help' for help.
============================[ Problem Statistics ]=============================
|                                                                             |
|  Number of variables:         87638                                         |
|  Number of clauses:          161767                                         |
|  Parse time:                   0.04 s                                       |
|                                                                             |
============================[ Search Statistics ]==============================
| Conflicts |          ORIGINAL         |          LEARNT          | Progress |
|           |    Vars  Clauses Literals |    Limit  Clauses Lit/Cl |          |
===============================================================================
|       100 |   62339   105009   262398 |    38503      100     42 | 28.868 % |
|       250 |   62336   105000   262380 |    42353      247     91 | 28.871 % |
|       475 |   62336   105000   262380 |    46588      472     97 | 28.871 % |
|       812 |   62336   105000   262380 |    51247      809     94 | 28.871 % |
|      1318 |   62311   104898   262141 |    56372     1311    110 | 28.900 % |
|      2077 |   62291   104820   261954 |    62009     2069    105 | 28.922 % |
|      3216 |   62251   104658   261580 |    68210     3204     91 | 28.968 % |
|      4924 |   62250   104614   261490 |    75032     4909     86 | 28.969 % |
|      7486 |   62250   104614   261490 |    82535     7471     86 | 28.969 % |
|     11330 |   48910    65269   165012 |    90788    10249     76 | 44.191 % |
===============================================================================
restarts              : 62
conflicts             : 15002          (7168 /sec)
decisions             : 51887          (0.00 % random) (24792 /sec)
propagations          : 20761918       (9920362 /sec)
conflict literals     : 1014659        (46.44 % deleted)
Memory used           : 35.36 MB
CPU time              : 2.09286 s

UNSATISFIABLE
